--- Job feedOptimizer.gms Start 06/17/20 16:59:57 30.2.0 r482c588 WEX-WEI x86 64bit/MS Windows
--- GAMS Parameters defined
    Input C:\Users\hasee\Documents\GitHub\GAMS-MIRO\feedopt\feedOptimizer.gms
    PageSize 0
    ScrDir C:\Users\hasee\Documents\GitHub\GAMS-MIRO\feedopt\225a\
    SysDir E:\30.2\
    LogOption 3
    ErrMsg 1
    ErrorLog 99
    IDE 1
    GDX C:\Users\hasee\Documents\GitHub\GAMS-MIRO\feedopt\res.gdx
    LstTitleLeftAligned 1
    IDCGenerateJSON conf_feedOptimizer/feedOptimizer_io.json
    IDCGenerateGDX data_feedOptimizer/default.gdx
GAMS 30.2.0   Copyright (C) 1987-2020 GAMS Development. All rights reserved
*** License has expired 8 days ago
Licensee: CS526 Advanced Linear Programming              G200210/0001AS-GEN
          Course License UW-Madison, Prof Ferris, Spring 2020        DCE515
          Evaluation license: Not for commercial or production use
--- Starting compilation
--- feedOptimizer.gms(237) 3 Mb
--- Starting execution: elapsed 0:00:00.008
--- feedOptimizer.gms(197) 4 Mb
--- Generating MIP model feedOptimizer
--- feedOptimizer.gms(199) 4 Mb
---   1 rows  1 columns  1 non-zeroes
--- Executing CPLEX: elapsed 0:00:00.038
IBM ILOG CPLEX   30.2.0 r482c588 Released Feb 07, 2020 WEI x86 64bit/MS Window
--- GAMS/Cplex licensed for continuous and discrete problems.
Cplex 12.10.0.0
Reading data...
Starting Cplex...
Space for names approximately 0.00 Mb
Use option 'names no' to turn use of names off
Version identifier: 12.10.0.0 | 2019-11-26 | 843d4de2ae
CPXPARAM_Advance                                 0
CPXPARAM_Simplex_Display                         2
CPXPARAM_Threads                                 1
CPXPARAM_Parallel                                1
CPXPARAM_Simplex_Limits_Iterations               2000000000
CPXPARAM_TimeLimit                               30
CPXPARAM_Tune_TimeLimit                          6
Tried aggregator 1 time.
LP Presolve eliminated 1 rows and 1 columns.
All rows and columns eliminated.
Presolve time = 0.00 sec. (0.00 ticks)
LP status(1): optimal
Cplex Time: 0.00sec (det. 0.00 ticks)
Optimal solution found.
Objective :           0.000000
--- Restarting execution
--- feedOptimizer.gms(199) 2 Mb
--- Reading solution for model feedOptimizer
--- Executing after solve: elapsed 0:00:00.193
--- feedOptimizer.gms(235) 3 Mb
--- GDX File C:\Users\hasee\Documents\GitHub\GAMS-MIRO\feedopt\res.gdx
--- GDX File C:\Users\hasee\Documents\GitHub\GAMS-MIRO\feedopt\data_feedOptimizer/default.gdx
*** Status: Normal completion
--- Job feedOptimizer.gms Stop 06/17/20 16:59:57 elapsed 0:00:00.205
TRACE [2020-06-17 17:00:01] Logging facility initialised.
DEBUG [2020-06-17 17:00:02] Database connection established.
DEBUG [2020-06-17 17:00:02] Access Control initialised.
WARN [2020-06-17 17:00:02] There are orphaned tables in your database: 'feedoptimizer__scalars_out'.
This could be caused because you used a different database schema in the past (e.g. due to different inputs and/or outputs). 
Note that you can remove orphaned database tables using the configuration mode ('Database management' section).
INFO [2020-06-17 17:00:02] New data: 'db_save_feedoptimizer.zip' is being stored in the database. Please wait a until the import is finished.
ERROR [2020-06-17 17:00:02] Problems saving MIRO data to database. Error message: 'Method ('') is not suported for loading data.'.
DEBUG [2020-06-17 17:00:07] Db: Data was imported from table: '_sys_metadata_feedoptimizer' (Db.importDataset).

